100 152300
69 98 95 43 49 64 54 13 6 93 1 76 14 23 42 12 83 40 9 58 84 26 44 47 89 99 90 27 30 3 79 21 34 62 82 60 39 22 66 74 91 32 25 96 92 19 94 11 4 35 18 71 70 97 55 2 48 56 37 31 46 29 78 17 20 87 85 52 15 16 53 28 45 57 77 73 68 36 51 65 63 33 41 88 80 50 10 5 8 61 100 59 86 67 81 72 75 7 24 38 
